job_count = 32 ;
duration = [|17, 9, 4|29, 12, 3|16, 15, 3|15, 16, 5|17, 19, 6|21, 12, 4|15, 19, 1|22, 9, 2|14, 12, 9|6, 14, 3|15, 14, 3|4, 17, 7|15, 15, 3|22, 9, 3|12, 11, 2|21, 12, 5|8, 19, 9|21, 2, 4|27, 8, 3|16, 19, 1|15, 7, 2|10, 4, 6|11, 6, 9|16, 9, 8|17, 16, 9|7, 4, 5|27, 18, 7|9, 17, 7|11, 17, 8|5, 12, 2|10, 14, 9|21, 2, 9|] ;
machine_count = 3 ;
cost = [|15, 36, 35|18, 32, 46|12, 37, 47|12, 20, 58|15, 30, 49|11, 26, 49|10, 28, 56|15, 23, 38|16, 31, 46|13, 38, 48|17, 38, 52|11, 35, 51|12, 39, 43|12, 28, 36|12, 39, 48|19, 22, 37|11, 39, 46|18, 31, 35|17, 34, 59|15, 27, 55|19, 29, 34|14, 30, 59|13, 37, 57|14, 24, 31|14, 29, 56|19, 38, 43|13, 20, 40|19, 31, 48|13, 26, 35|15, 36, 48|13, 36, 35|14, 33, 39|] ;
deadline = [71, 71, 71, 71, 71, 71, 71, 71, 71, 71, 71, 71, 71, 71, 71, 71, 71, 71, 71, 71, 71, 71, 71, 71, 71, 71, 71, 71, 71, 71, 71, 71] ;
release = [0, 0, 0, 0, 0, 0, 0, 0, 0, 0, 0, 0, 0, 0, 0, 0, 0, 0, 0, 0, 0, 0, 0, 0, 0, 0, 0, 0, 0, 0, 0, 0] ;
resource = [|6, 6, 6|2, 2, 2|5, 5, 5|3, 3, 3|6, 6, 6|1, 1, 1|2, 2, 2|6, 6, 6|2, 2, 2|6, 6, 6|9, 9, 9|5, 5, 5|3, 3, 3|4, 4, 4|8, 8, 8|6, 6, 6|6, 6, 6|6, 6, 6|9, 9, 9|6, 6, 6|5, 5, 5|6, 6, 6|8, 8, 8|8, 8, 8|6, 6, 6|2, 2, 2|5, 5, 5|5, 5, 5|3, 3, 3|6, 6, 6|2, 2, 2|7, 7, 7|] ;
capacities = [10, 10, 10] ;
